(set-info :smt-lib-version 2.6)
(set-logic QF_LRA)
(set-info :source |
Specification and verification of a 8N1 decoder.
Geoffrey Brown, Indiana University <geobrown@cs.indiana.edu>
Lee Pike, Galois Connections, Inc. <leepike@galois.com> 

Translated into CVC format by Leonardo de Moura.

This benchmark was automatically translated into SMT-LIB format from
CVC format using CVC Lite



|)
(set-info :category "industrial")
(set-info :status sat)
(declare-fun x_0 () Real)
(declare-fun x_1 () Real)
(declare-fun x_2 () Real)
(declare-fun x_3 () Real)
(declare-fun x_4 () Real)
(declare-fun x_5 () Bool)
(declare-fun x_6 () Real)
(declare-fun x_7 () Bool)
(declare-fun x_8 () Real)
(declare-fun x_9 () Bool)
(declare-fun x_10 () Real)
(declare-fun x_11 () Bool)
(declare-fun x_12 () Real)
(declare-fun x_13 () Bool)
(declare-fun x_14 () Real)
(declare-fun x_15 () Bool)
(declare-fun x_16 () Real)
(declare-fun x_17 () Real)
(declare-fun x_18 () Real)
(declare-fun x_19 () Real)
(declare-fun x_20 () Real)
(declare-fun x_21 () Real)
(declare-fun x_22 () Real)
(declare-fun x_23 () Real)
(declare-fun x_24 () Real)
(declare-fun x_25 () Real)
(declare-fun x_26 () Real)
(declare-fun x_27 () Real)
(declare-fun x_28 () Real)
(declare-fun x_29 () Real)
(declare-fun x_30 () Real)
(declare-fun x_31 () Real)
(declare-fun x_32 () Real)
(declare-fun x_33 () Real)
(declare-fun x_34 () Real)
(declare-fun x_35 () Real)
(declare-fun x_36 () Real)
(declare-fun x_37 () Real)
(declare-fun x_38 () Real)
(declare-fun x_39 () Real)
(declare-fun x_40 () Real)
(declare-fun x_41 () Real)
(declare-fun x_42 () Real)
(declare-fun x_43 () Real)
(declare-fun x_44 () Real)
(declare-fun x_45 () Real)
(declare-fun x_46 () Real)
(declare-fun x_47 () Real)
(declare-fun x_48 () Real)
(declare-fun x_49 () Real)
(declare-fun x_50 () Real)
(declare-fun x_51 () Real)
(declare-fun x_52 () Real)
(declare-fun x_53 () Real)
(declare-fun x_54 () Real)
(declare-fun x_55 () Real)
(declare-fun x_56 () Real)
(declare-fun x_57 () Real)
(declare-fun x_58 () Real)
(declare-fun x_59 () Real)
(declare-fun x_60 () Real)
(declare-fun x_61 () Real)
(declare-fun x_62 () Real)
(declare-fun x_63 () Real)
(declare-fun x_64 () Real)
(declare-fun x_65 () Real)
(declare-fun x_66 () Real)
(declare-fun x_67 () Real)
(declare-fun x_68 () Real)
(declare-fun x_69 () Real)
(declare-fun x_70 () Real)
(declare-fun x_71 () Real)
(declare-fun x_72 () Real)
(declare-fun x_73 () Real)
(declare-fun x_74 () Real)
(declare-fun x_75 () Real)
(declare-fun x_76 () Real)
(declare-fun x_77 () Real)
(declare-fun x_78 () Real)
(declare-fun x_79 () Real)
(declare-fun x_80 () Real)
(declare-fun x_81 () Real)
(declare-fun x_82 () Real)
(declare-fun x_83 () Real)
(declare-fun x_84 () Real)
(declare-fun x_85 () Real)
(declare-fun x_86 () Real)
(declare-fun x_87 () Real)
(declare-fun x_88 () Real)
(declare-fun x_89 () Real)
(declare-fun x_90 () Real)
(declare-fun x_91 () Real)
(declare-fun x_92 () Real)
(declare-fun x_93 () Real)
(declare-fun x_94 () Real)
(declare-fun x_95 () Real)
(declare-fun x_96 () Real)
(declare-fun x_97 () Real)
(assert (let ((?v_14 (not x_13))) (let ((?v_16 (and ?v_14 (< x_14 8))) (?v_57 (not x_11))) (let ((?v_59 (and ?v_57 (< x_12 8))) (?v_95 (not x_9))) (let ((?v_97 (and ?v_95 (< x_10 8))) (?v_133 (not x_7))) (let ((?v_135 (and ?v_133 (< x_8 8))) (?v_171 (not x_5))) (let ((?v_173 (and ?v_171 (< x_6 8))) (?v_161 (= x_17 10)) (?v_163 (= x_18 1)) (?v_165 (= x_7 x_5)) (?v_166 (= x_19 x_20)) (?v_170 (= x_21 x_20)) (?v_167 (= x_22 x_23)) (?v_169 (= x_24 x_25)) (?v_174 (= x_6 9)) (?v_175 (= x_22 1)) (?v_176 (not (= x_25 1))) (?v_177 (not (= x_25 0))) (?v_178 (= x_25 3)) (?v_179 (= x_25 2)) (?v_168 (= x_8 x_6)) (?v_180 (= x_26 x_21)) (?v_159 (= x_27 x_28)) (?v_181 (= x_18 x_29)) (?v_160 (= x_30 x_17)) (?v_182 (= x_31 x_32)) (?v_183 (< x_17 9)) (?v_185 (= x_0 2)) (?v_184 (= x_21 x_32)) (?v_189 (= x_20 x_21))) (let ((?v_190 (not ?v_189)) (?v_187 (= x_6 x_17)) (?v_195 (not (= x_28 x_23))) (?v_154 (= x_1 1)) (?v_123 (= x_30 10)) (?v_125 (= x_41 1)) (?v_127 (= x_9 x_7)) (?v_128 (= x_42 x_19)) (?v_132 (= x_26 x_19)) (?v_129 (= x_43 x_22)) (?v_131 (= x_44 x_24)) (?v_136 (= x_8 9)) (?v_137 (= x_43 1)) (?v_138 (not (= x_24 1))) (?v_139 (not (= x_24 0))) (?v_140 (= x_24 3)) (?v_141 (= x_24 2)) (?v_130 (= x_10 x_8)) (?v_142 (= x_45 x_26)) (?v_121 (= x_46 x_27)) (?v_143 (= x_41 x_18)) (?v_122 (= x_47 x_30)) (?v_144 (= x_48 x_31)) (?v_145 (< x_30 9)) (?v_147 (= x_1 2)) (?v_146 (= x_26 x_31)) (?v_151 (= x_19 x_26))) (let ((?v_152 (not ?v_151)) (?v_149 (= x_8 x_30)) (?v_157 (not (= x_27 x_22))) (?v_116 (= x_2 1)) (?v_85 (= x_47 10)) (?v_87 (= x_55 1)) (?v_89 (= x_11 x_9)) (?v_90 (= x_56 x_42)) (?v_94 (= x_45 x_42)) (?v_91 (= x_57 x_43)) (?v_93 (= x_58 x_44)) (?v_98 (= x_10 9)) (?v_99 (= x_57 1)) (?v_100 (not (= x_44 1))) (?v_101 (not (= x_44 0))) (?v_102 (= x_44 3)) (?v_103 (= x_44 2)) (?v_92 (= x_12 x_10)) (?v_104 (= x_59 x_45)) (?v_83 (= x_60 x_46)) (?v_105 (= x_55 x_41)) (?v_84 (= x_61 x_47)) (?v_106 (= x_62 x_48)) (?v_107 (< x_47 9)) (?v_109 (= x_2 2)) (?v_108 (= x_45 x_48)) (?v_113 (= x_42 x_45))) (let ((?v_114 (not ?v_113)) (?v_111 (= x_10 x_47)) (?v_119 (not (= x_46 x_43))) (?v_78 (= x_3 1)) (?v_42 (= x_61 10)) (?v_44 (= x_69 1)) (?v_50 (= x_13 x_11)) (?v_51 (= x_70 x_56)) (?v_55 (= x_59 x_56)) (?v_52 (= x_71 x_57)) (?v_54 (= x_72 x_58)) (?v_60 (= x_12 9)) (?v_61 (= x_71 1)) (?v_62 (not (= x_58 1))) (?v_63 (not (= x_58 0))) (?v_64 (= x_58 3)) (?v_65 (= x_58 2)) (?v_53 (= x_14 x_12)) (?v_66 (= x_73 x_59)) (?v_40 (= x_74 x_60)) (?v_67 (= x_69 x_55)) (?v_41 (= x_75 x_61)) (?v_68 (= x_76 x_62)) (?v_69 (< x_61 9)) (?v_71 (= x_3 2)) (?v_70 (= x_59 x_62)) (?v_75 (= x_56 x_59))) (let ((?v_76 (not ?v_75)) (?v_73 (= x_12 x_61)) (?v_81 (not (= x_60 x_57))) (?v_34 (= x_4 1)) (?v_2 (= x_75 10)) (?v_4 (= x_83 1)) (?v_8 (= x_15 x_13)) (?v_9 (= x_84 x_70)) (?v_13 (= x_73 x_70)) (?v_10 (= x_85 x_71)) (?v_12 (= x_86 x_72)) (?v_17 (= x_14 9)) (?v_18 (= x_85 1)) (?v_19 (not (= x_72 1))) (?v_20 (not (= x_72 0))) (?v_21 (= x_72 3)) (?v_22 (= x_72 2)) (?v_11 (= x_16 x_14)) (?v_23 (= x_87 x_73)) (?v_0 (= x_88 x_74)) (?v_24 (= x_83 x_69)) (?v_1 (= x_89 x_75)) (?v_25 (= x_90 x_76)) (?v_26 (< x_75 9)) (?v_28 (= x_4 2)) (?v_27 (= x_73 x_76)) (?v_32 (= x_70 x_73))) (let ((?v_33 (not ?v_32)) (?v_30 (= x_14 x_75)) (?v_38 (not (= x_74 x_71))) (?v_35 (= x_91 1)) (?v_172 (not (< x_22 0))) (?v_134 (not (< x_43 0))) (?v_96 (not (< x_57 0))) (?v_58 (not (< x_71 0))) (?v_15 (not (< x_85 0))) (?v_192 (= x_0 1)) (?v_3 (= x_83 0)) (?v_5 (= x_89 1)) (?v_77 (= x_4 0)) (?v_43 (= x_69 0)) (?v_45 (= x_75 1)) (?v_115 (= x_3 0)) (?v_86 (= x_55 0)) (?v_88 (= x_61 1)) (?v_153 (= x_2 0)) (?v_124 (= x_41 0)) (?v_126 (= x_47 1)) (?v_191 (= x_1 0)) (?v_162 (= x_18 0)) (?v_164 (= x_30 1)) (?v_36 (not ?v_26)) (?v_37 (and ?v_26 (not ?v_27))) (?v_31 (and ?v_26 ?v_27))) (let ((?v_29 (and ?v_31 ?v_33))) (let ((?v_39 (and ?v_29 ?v_30)) (?v_79 (not ?v_69)) (?v_80 (and ?v_69 (not ?v_70))) (?v_74 (and ?v_69 ?v_70))) (let ((?v_72 (and ?v_74 ?v_76))) (let ((?v_82 (and ?v_72 ?v_73)) (?v_117 (not ?v_107)) (?v_118 (and ?v_107 (not ?v_108))) (?v_112 (and ?v_107 ?v_108))) (let ((?v_110 (and ?v_112 ?v_114))) (let ((?v_120 (and ?v_110 ?v_111)) (?v_155 (not ?v_145)) (?v_156 (and ?v_145 (not ?v_146))) (?v_150 (and ?v_145 ?v_146))) (let ((?v_148 (and ?v_150 ?v_152))) (let ((?v_158 (and ?v_148 ?v_149)) (?v_193 (not ?v_183)) (?v_194 (and ?v_183 (not ?v_184))) (?v_188 (and ?v_183 ?v_184))) (let ((?v_186 (and ?v_188 ?v_190))) (let ((?v_196 (and ?v_186 ?v_187)) (?v_6 (- 1 x_36))) (let ((?v_46 (* ?v_6 23)) (?v_7 (+ x_36 1))) (let ((?v_47 (* ?v_7 23)) (?v_48 (* ?v_6 16)) (?v_49 (* ?v_7 16)) (?v_56 (- 16 x_38))) (and (and (and (and (and (and (and (and (and (and (and (and (and (and (and (and (and (and (and (and (and (and (and (and (and (and (and (and (and (and (and (and (and (and (and (and (and (and (and (and (and (and (and (and (and (and (and (and (and (and (and (and (and (and (and (and (and (and (and (and (and (and (and (and (and (and (and (and (and (and (and (and (and (and (and (and (and (and (and (and (and (and (and (and (and (and (and (and (and (and (and (and (and (and (and (and (and (and (and (and (and (and (and (<= x_86 3) (>= x_86 0)) (<= x_83 3)) (>= x_83 0)) (<= x_72 3)) (>= x_72 0)) (<= x_69 3)) (>= x_69 0)) (<= x_58 3)) (>= x_58 0)) (<= x_55 3)) (>= x_55 0)) (<= x_44 3)) (>= x_44 0)) (<= x_41 3)) (>= x_41 0)) (<= x_29 3)) (>= x_29 0)) (<= x_25 3)) (>= x_25 0)) (<= x_24 3)) (>= x_24 0)) (<= x_18 3)) (>= x_18 0)) (not (< x_0 0))) (<= x_0 2)) (not (< x_1 0))) (<= x_1 2)) (not (< x_2 0))) (<= x_2 2)) (not (< x_3 0))) (<= x_3 2)) (not (< x_4 0))) (<= x_4 2)) (not (< x_6 0))) (<= x_6 9)) (not (< x_8 0))) (<= x_8 9)) (not (< x_10 0))) (<= x_10 9)) (not (< x_12 0))) (<= x_12 9)) (not (< x_14 0))) (<= x_14 9)) (not (< x_16 0))) (<= x_16 9)) (not (< x_17 1))) (<= x_17 10)) ?v_172) (<= x_22 1)) (not (< x_23 0))) (<= x_23 1)) (not (< x_27 0))) (<= x_27 1)) (not (< x_28 0))) (<= x_28 1)) (not (< x_30 1))) (<= x_30 10)) (>= x_36 0)) (< x_36 (/ 3 151))) (>= x_38 0)) (< x_38 4)) ?v_134) (<= x_43 1)) (not (< x_46 0))) (<= x_46 1)) (not (< x_47 1))) (<= x_47 10)) ?v_96) (<= x_57 1)) (not (< x_60 0))) (<= x_60 1)) (not (< x_61 1))) (<= x_61 10)) ?v_58) (<= x_71 1)) (not (< x_74 0))) (<= x_74 1)) (not (< x_75 1))) (<= x_75 10)) ?v_15) (<= x_85 1)) (not (< x_88 0))) (<= x_88 1)) (not (< x_89 1))) (<= x_89 10)) (not (< x_91 0))) (<= x_91 2)) (not ?v_34)) (not ?v_78)) (not ?v_116)) (not ?v_154)) (not ?v_192)) (or (or (and (and (and (and (and (and (and (and (and (and (= x_92 0) (or (and (and (and (= x_93 0) (< x_73 x_76)) (<= x_76 x_70)) (= x_87 x_76)) (and (and (and (= x_93 1) (< x_73 x_70)) (<= x_70 x_76)) (= x_87 x_70)))) ?v_0) ?v_24) ?v_1) ?v_25) ?v_8) ?v_9) ?v_10) ?v_11) ?v_12) (and (and (and (and (and (and (and (and (and (= x_92 1) (or (or (and (and (and (and (and (= x_94 0) ?v_2) ?v_20) ?v_4) ?v_0) ?v_1) (and (and (and (and (and (= x_94 1) ?v_2) ?v_19) ?v_3) ?v_5) ?v_0)) (and (and (and (and (= x_94 2) (not ?v_2)) (ite (or ?v_22 ?v_21) (or ?v_3 ?v_4) (= x_83 x_72))) (= x_89 (+ x_75 1))) (= x_88 (ite ?v_4 1 0))))) ?v_27) (ite (= x_89 10) (and (<= (+ x_73 ?v_6) x_90) (<= x_90 (+ (+ x_73 x_36) 1))) (ite ?v_5 (and (<= (+ x_73 ?v_46) x_90) (<= x_90 (+ x_73 ?v_47))) (and (<= (+ x_73 ?v_48) x_90) (<= x_90 (+ x_73 ?v_49)))))) ?v_23) ?v_8) ?v_9) ?v_10) ?v_11) ?v_12)) (and (and (and (and (and (and (and (and (= x_92 2) (or (and (and (and (and (= x_95 0) ?v_13) ?v_14) (= x_84 (+ x_73 x_38))) x_15) (and (and (and (and (= x_95 1) ?v_13) x_13) (= x_84 (+ x_73 ?v_56))) (not x_15)))) (or (and (and (and (= x_96 0) ?v_16) (or (= x_85 0) ?v_18)) ?v_15) (and (and (= x_96 1) (not ?v_16)) ?v_10))) (or (or (or (and (and (and (and (= x_97 0) ?v_14) ?v_17) (= x_16 9)) ?v_12) (and (and (and (and (= x_97 1) ?v_14) ?v_17) (= x_86 2)) (= x_16 0))) (and (and (and (and (= x_97 2) ?v_14) (< x_14 9)) (= x_86 (ite (or ?v_18 (= x_14 8)) (ite ?v_19 3 x_72) (ite ?v_20 2 x_72)))) (= x_16 (+ x_14 1)))) (and (and (and (= x_97 3) x_13) (= x_86 (ite ?v_21 1 (ite ?v_22 0 x_72)))) ?v_11))) ?v_23) ?v_0) ?v_24) ?v_1) ?v_25))) (or (or (or (or (and (and ?v_28 (or (or ?v_36 ?v_37) ?v_39)) (= x_91 2)) (and (and ?v_28 (or (and ?v_29 (not ?v_30)) (and ?v_31 ?v_32))) ?v_35)) (and (and (and (and (and ?v_28 ?v_26) ?v_27) ?v_33) ?v_30) (= x_91 0))) (and ?v_34 ?v_35)) (and (and ?v_77 (or (or (and ?v_36 ?v_38) (and ?v_37 ?v_38)) (and ?v_39 ?v_38))) ?v_35))) (or (or (and (and (and (and (and (and (and (and (and (and (= x_77 0) (or (and (and (and (= x_78 0) (< x_59 x_62)) (<= x_62 x_56)) (= x_73 x_62)) (and (and (and (= x_78 1) (< x_59 x_56)) (<= x_56 x_62)) (= x_73 x_56)))) ?v_40) ?v_67) ?v_41) ?v_68) ?v_50) ?v_51) ?v_52) ?v_53) ?v_54) (and (and (and (and (and (and (and (and (and (= x_77 1) (or (or (and (and (and (and (and (= x_79 0) ?v_42) ?v_63) ?v_44) ?v_40) ?v_41) (and (and (and (and (and (= x_79 1) ?v_42) ?v_62) ?v_43) ?v_45) ?v_40)) (and (and (and (and (= x_79 2) (not ?v_42)) (ite (or ?v_65 ?v_64) (or ?v_43 ?v_44) (= x_69 x_58))) (= x_75 (+ x_61 1))) (= x_74 (ite ?v_44 1 0))))) ?v_70) (ite ?v_2 (and (<= (+ x_59 ?v_6) x_76) (<= x_76 (+ (+ x_59 x_36) 1))) (ite ?v_45 (and (<= (+ x_59 ?v_46) x_76) (<= x_76 (+ x_59 ?v_47))) (and (<= (+ x_59 ?v_48) x_76) (<= x_76 (+ x_59 ?v_49)))))) ?v_66) ?v_50) ?v_51) ?v_52) ?v_53) ?v_54)) (and (and (and (and (and (and (and (and (= x_77 2) (or (and (and (and (and (= x_80 0) ?v_55) ?v_57) (= x_70 (+ x_59 x_38))) x_13) (and (and (and (and (= x_80 1) ?v_55) x_11) (= x_70 (+ x_59 ?v_56))) ?v_14))) (or (and (and (and (= x_81 0) ?v_59) (or (= x_71 0) ?v_61)) ?v_58) (and (and (= x_81 1) (not ?v_59)) ?v_52))) (or (or (or (and (and (and (and (= x_82 0) ?v_57) ?v_60) ?v_17) ?v_54) (and (and (and (and (= x_82 1) ?v_57) ?v_60) ?v_22) (= x_14 0))) (and (and (and (and (= x_82 2) ?v_57) (< x_12 9)) (= x_72 (ite (or ?v_61 (= x_12 8)) (ite ?v_62 3 x_58) (ite ?v_63 2 x_58)))) (= x_14 (+ x_12 1)))) (and (and (and (= x_82 3) x_11) (= x_72 (ite ?v_64 1 (ite ?v_65 0 x_58)))) ?v_53))) ?v_66) ?v_40) ?v_67) ?v_41) ?v_68))) (or (or (or (or (and (and ?v_71 (or (or ?v_79 ?v_80) ?v_82)) ?v_28) (and (and ?v_71 (or (and ?v_72 (not ?v_73)) (and ?v_74 ?v_75))) ?v_34)) (and (and (and (and (and ?v_71 ?v_69) ?v_70) ?v_76) ?v_73) ?v_77)) (and ?v_78 ?v_34)) (and (and ?v_115 (or (or (and ?v_79 ?v_81) (and ?v_80 ?v_81)) (and ?v_82 ?v_81))) ?v_34))) (or (or (and (and (and (and (and (and (and (and (and (and (= x_63 0) (or (and (and (and (= x_64 0) (< x_45 x_48)) (<= x_48 x_42)) (= x_59 x_48)) (and (and (and (= x_64 1) (< x_45 x_42)) (<= x_42 x_48)) (= x_59 x_42)))) ?v_83) ?v_105) ?v_84) ?v_106) ?v_89) ?v_90) ?v_91) ?v_92) ?v_93) (and (and (and (and (and (and (and (and (and (= x_63 1) (or (or (and (and (and (and (and (= x_65 0) ?v_85) ?v_101) ?v_87) ?v_83) ?v_84) (and (and (and (and (and (= x_65 1) ?v_85) ?v_100) ?v_86) ?v_88) ?v_83)) (and (and (and (and (= x_65 2) (not ?v_85)) (ite (or ?v_103 ?v_102) (or ?v_86 ?v_87) (= x_55 x_44))) (= x_61 (+ x_47 1))) (= x_60 (ite ?v_87 1 0))))) ?v_108) (ite ?v_42 (and (<= (+ x_45 ?v_6) x_62) (<= x_62 (+ (+ x_45 x_36) 1))) (ite ?v_88 (and (<= (+ x_45 ?v_46) x_62) (<= x_62 (+ x_45 ?v_47))) (and (<= (+ x_45 ?v_48) x_62) (<= x_62 (+ x_45 ?v_49)))))) ?v_104) ?v_89) ?v_90) ?v_91) ?v_92) ?v_93)) (and (and (and (and (and (and (and (and (= x_63 2) (or (and (and (and (and (= x_66 0) ?v_94) ?v_95) (= x_56 (+ x_45 x_38))) x_11) (and (and (and (and (= x_66 1) ?v_94) x_9) (= x_56 (+ x_45 ?v_56))) ?v_57))) (or (and (and (and (= x_67 0) ?v_97) (or (= x_57 0) ?v_99)) ?v_96) (and (and (= x_67 1) (not ?v_97)) ?v_91))) (or (or (or (and (and (and (and (= x_68 0) ?v_95) ?v_98) ?v_60) ?v_93) (and (and (and (and (= x_68 1) ?v_95) ?v_98) ?v_65) (= x_12 0))) (and (and (and (and (= x_68 2) ?v_95) (< x_10 9)) (= x_58 (ite (or ?v_99 (= x_10 8)) (ite ?v_100 3 x_44) (ite ?v_101 2 x_44)))) (= x_12 (+ x_10 1)))) (and (and (and (= x_68 3) x_9) (= x_58 (ite ?v_102 1 (ite ?v_103 0 x_44)))) ?v_92))) ?v_104) ?v_83) ?v_105) ?v_84) ?v_106))) (or (or (or (or (and (and ?v_109 (or (or ?v_117 ?v_118) ?v_120)) ?v_71) (and (and ?v_109 (or (and ?v_110 (not ?v_111)) (and ?v_112 ?v_113))) ?v_78)) (and (and (and (and (and ?v_109 ?v_107) ?v_108) ?v_114) ?v_111) ?v_115)) (and ?v_116 ?v_78)) (and (and ?v_153 (or (or (and ?v_117 ?v_119) (and ?v_118 ?v_119)) (and ?v_120 ?v_119))) ?v_78))) (or (or (and (and (and (and (and (and (and (and (and (and (= x_49 0) (or (and (and (and (= x_50 0) (< x_26 x_31)) (<= x_31 x_19)) (= x_45 x_31)) (and (and (and (= x_50 1) (< x_26 x_19)) (<= x_19 x_31)) (= x_45 x_19)))) ?v_121) ?v_143) ?v_122) ?v_144) ?v_127) ?v_128) ?v_129) ?v_130) ?v_131) (and (and (and (and (and (and (and (and (and (= x_49 1) (or (or (and (and (and (and (and (= x_51 0) ?v_123) ?v_139) ?v_125) ?v_121) ?v_122) (and (and (and (and (and (= x_51 1) ?v_123) ?v_138) ?v_124) ?v_126) ?v_121)) (and (and (and (and (= x_51 2) (not ?v_123)) (ite (or ?v_141 ?v_140) (or ?v_124 ?v_125) (= x_41 x_24))) (= x_47 (+ x_30 1))) (= x_46 (ite ?v_125 1 0))))) ?v_146) (ite ?v_85 (and (<= (+ x_26 ?v_6) x_48) (<= x_48 (+ (+ x_26 x_36) 1))) (ite ?v_126 (and (<= (+ x_26 ?v_46) x_48) (<= x_48 (+ x_26 ?v_47))) (and (<= (+ x_26 ?v_48) x_48) (<= x_48 (+ x_26 ?v_49)))))) ?v_142) ?v_127) ?v_128) ?v_129) ?v_130) ?v_131)) (and (and (and (and (and (and (and (and (= x_49 2) (or (and (and (and (and (= x_52 0) ?v_132) ?v_133) (= x_42 (+ x_26 x_38))) x_9) (and (and (and (and (= x_52 1) ?v_132) x_7) (= x_42 (+ x_26 ?v_56))) ?v_95))) (or (and (and (and (= x_53 0) ?v_135) (or (= x_43 0) ?v_137)) ?v_134) (and (and (= x_53 1) (not ?v_135)) ?v_129))) (or (or (or (and (and (and (and (= x_54 0) ?v_133) ?v_136) ?v_98) ?v_131) (and (and (and (and (= x_54 1) ?v_133) ?v_136) ?v_103) (= x_10 0))) (and (and (and (and (= x_54 2) ?v_133) (< x_8 9)) (= x_44 (ite (or ?v_137 (= x_8 8)) (ite ?v_138 3 x_24) (ite ?v_139 2 x_24)))) (= x_10 (+ x_8 1)))) (and (and (and (= x_54 3) x_7) (= x_44 (ite ?v_140 1 (ite ?v_141 0 x_24)))) ?v_130))) ?v_142) ?v_121) ?v_143) ?v_122) ?v_144))) (or (or (or (or (and (and ?v_147 (or (or ?v_155 ?v_156) ?v_158)) ?v_109) (and (and ?v_147 (or (and ?v_148 (not ?v_149)) (and ?v_150 ?v_151))) ?v_116)) (and (and (and (and (and ?v_147 ?v_145) ?v_146) ?v_152) ?v_149) ?v_153)) (and ?v_154 ?v_116)) (and (and ?v_191 (or (or (and ?v_155 ?v_157) (and ?v_156 ?v_157)) (and ?v_158 ?v_157))) ?v_116))) (or (or (and (and (and (and (and (and (and (and (and (and (= x_33 0) (or (and (and (and (= x_34 0) (< x_21 x_32)) (<= x_32 x_20)) (= x_26 x_32)) (and (and (and (= x_34 1) (< x_21 x_20)) (<= x_20 x_32)) (= x_26 x_20)))) ?v_159) ?v_181) ?v_160) ?v_182) ?v_165) ?v_166) ?v_167) ?v_168) ?v_169) (and (and (and (and (and (and (and (and (and (= x_33 1) (or (or (and (and (and (and (and (= x_35 0) ?v_161) ?v_177) ?v_163) ?v_159) ?v_160) (and (and (and (and (and (= x_35 1) ?v_161) ?v_176) ?v_162) ?v_164) ?v_159)) (and (and (and (and (= x_35 2) (not ?v_161)) (ite (or ?v_179 ?v_178) (or ?v_162 ?v_163) (= x_18 x_25))) (= x_30 (+ x_17 1))) (= x_27 (ite ?v_163 1 0))))) ?v_184) (ite ?v_123 (and (<= (+ x_21 ?v_6) x_31) (<= x_31 (+ (+ x_21 x_36) 1))) (ite ?v_164 (and (<= (+ x_21 ?v_46) x_31) (<= x_31 (+ x_21 ?v_47))) (and (<= (+ x_21 ?v_48) x_31) (<= x_31 (+ x_21 ?v_49)))))) ?v_180) ?v_165) ?v_166) ?v_167) ?v_168) ?v_169)) (and (and (and (and (and (and (and (and (= x_33 2) (or (and (and (and (and (= x_37 0) ?v_170) ?v_171) (= x_19 (+ x_21 x_38))) x_7) (and (and (and (and (= x_37 1) ?v_170) x_5) (= x_19 (+ x_21 ?v_56))) ?v_133))) (or (and (and (and (= x_39 0) ?v_173) (or (= x_22 0) ?v_175)) ?v_172) (and (and (= x_39 1) (not ?v_173)) ?v_167))) (or (or (or (and (and (and (and (= x_40 0) ?v_171) ?v_174) ?v_136) ?v_169) (and (and (and (and (= x_40 1) ?v_171) ?v_174) ?v_141) (= x_8 0))) (and (and (and (and (= x_40 2) ?v_171) (< x_6 9)) (= x_24 (ite (or ?v_175 (= x_6 8)) (ite ?v_176 3 x_25) (ite ?v_177 2 x_25)))) (= x_8 (+ x_6 1)))) (and (and (and (= x_40 3) x_5) (= x_24 (ite ?v_178 1 (ite ?v_179 0 x_25)))) ?v_168))) ?v_180) ?v_159) ?v_181) ?v_160) ?v_182))) (or (or (or (or (and (and ?v_185 (or (or ?v_193 ?v_194) ?v_196)) ?v_147) (and (and ?v_185 (or (and ?v_186 (not ?v_187)) (and ?v_188 ?v_189))) ?v_154)) (and (and (and (and (and ?v_185 ?v_183) ?v_184) ?v_190) ?v_187) ?v_191)) (and ?v_192 ?v_154)) (and (and (= x_0 0) (or (or (and ?v_193 ?v_195) (and ?v_194 ?v_195)) (and ?v_196 ?v_195))) ?v_154))) ?v_35)))))))))))))))))))))))))
(check-sat)
(exit)
